DATASET = "thpack4";
INSTANCE = "042";

WIDTH = 233;
HEIGHT = 220;
LENGTH = 587;

NO_OF_SHAPES = 10;
size = [|
  76,74,50 |
  86,40,29 |
  66,55,48 |
  75,57,37 |
  102,83,29 |
  74,58,52 |
  89,65,36 |
  99,68,67 |
  80,78,66 |
  65,57,45 |
|];

verticality = [|
  1,1,1 |
  0,1,1 |
  1,1,1 |
  0,1,1 |
  0,0,1 |
  1,1,1 |
  0,1,1 |
  1,1,1 |
  1,1,1 |
  1,1,1 |
|];

box_count = [
  17,
  11,
  10,
  9,
  10,
  15,
  16,
  12,
  12,
  9,
];
